8140
4, 12, 28, 27, 47, 26, 14, 13, 52, 11, 51, 33, 43, 10, 9, 41, 8, 19, 45, 32, 49, 35, 34, 44, 46, 16, 29, 20, 50, 23, 30, 2, 7, 42, 21, 17, 3, 18, 31, 22, 1, 36, 39, 37, 40, 38, 48, 24, 15, 5, 6, 25
